molecule mol {
  noreorient
  nocom
  0 1
  H -0.547351877  4.050958732 -1.003602047
  C -0.595013650  3.006160962 -0.928994297
  C -0.649121010  1.814260541 -0.843952434
  C -0.714806095  0.373972551 -0.741096942
  H  0.245255566 -0.063053201 -1.014958946
  H -0.956962354  0.084348073  0.281245578
  H -1.483470760 -0.012426165 -1.410095898
}

set {
  basis 6-31G*
}

optimize('scf')

E,wfn = prop('hf', properties = ['GRID_ESP', 'GRID_FIELD'], return_wfn=True)
mol.save_xyz_file('final-geometry.xyz',1)