#P hf/6-31G* ! ASE formatted method and basis
scf(qc)
opt(tight,maxcycle=100)

Gaussian input prepared by ASE

0 1
O                -1.5671490000       -0.2474310000        0.9461880000
C                -1.2632490000       -0.1407900000       -0.4046780000
C                 0.2324150000       -0.1759190000       -0.6111500000
O                 0.7264690000       -1.3782490000       -0.1229860000
C                 0.9478210000        0.9488450000        0.0908020000
O                 2.3089890000        0.8027220000       -0.1971830000
H                -2.5604020000       -0.2636960000        1.0357860000
H                -1.6825350000        0.8105050000       -0.8054210000
H                -1.6813340000       -0.9997440000       -0.9705250000
H                 0.5062670000       -0.1182420000       -1.6814780000
H                -0.0245150000       -1.9940810000        0.1437030000
H                 0.8549840000        0.8923720000        1.1975810000
H                 0.6580840000        1.9468410000       -0.3036680000
H                 2.5441550000       -0.0831340000       -0.5260510000


