#P hf/6-31G* ! ASE formatted method and basis
scf(qc)
opt(tight,maxcycle=100)

Gaussian input prepared by ASE

0 1
O                 2.1984390000        0.0428050000       -0.4630440000
C                 0.9624500000       -0.5683080000       -0.3811650000
C                -0.1482220000        0.4922620000       -0.3229490000
O                 0.0379520000        1.3036580000        0.8025770000
C                -1.4972360000       -0.1761830000       -0.1483670000
O                -1.5392460000       -0.9420740000        0.9992080000
H                 2.7504100000       -0.1653660000        0.3165180000
H                 0.8837910000       -1.1398380000        0.5840480000
H                 0.7696440000       -1.2120240000       -1.2592440000
H                -0.1320450000        1.0736220000       -1.2500830000
H                 0.5752700000        2.0795060000        0.5485350000
H                -1.7774600000       -0.7498170000       -1.0614700000
H                -2.2342920000        0.6570990000       -0.0307640000
H                -0.8494550000       -0.6953420000        1.6661980000


