#P hf/6-31G* ! ASE formatted method and basis
scf(qc)
opt(tight,maxcycle=100)

Gaussian input prepared by ASE

0 1
O                 1.6789480000        0.4339170000       -0.9323450000
C                 1.1261780000       -0.7495670000       -0.4243080000
C                -0.1280050000       -0.4078980000        0.3244900000
O                 0.2622000000        0.4699400000        1.3614320000
C                -1.1399240000        0.3191830000       -0.5270360000
O                -2.2395980000        0.6707940000        0.2511110000
H                 2.1752770000        0.9366810000       -0.2545850000
H                 1.8633010000       -1.1200300000        0.3309280000
H                 0.9901690000       -1.5138710000       -1.2009700000
H                -0.5858530000       -1.3077090000        0.7613170000
H                 0.4179540000       -0.0990210000        2.1516050000
H                -1.5144970000       -0.4097430000       -1.3007000000
H                -0.7045260000        1.1548530000       -1.0845200000
H                -2.2016240000        1.6224700000        0.5435800000


